NAME : R208
TYPE : CVRPTW
DIMENSION : 26
VEHICLES : 1
CAPACITY : 1000
SERVICE_TIME : 10
SCALE : 10
EDGE_WEIGHT_TYPE : FLOOR_2D
NODE_COORD_SECTION
1 35 35
2 41 49
3 35 17
4 55 45
5 55 20
6 15 30
7 25 30
8 20 50
9 10 43
10 55 60
11 30 60
12 20 65
13 50 35
14 30 25
15 15 10
16 30 5
17 10 20
18 5 30
19 20 40
20 15 60
21 45 65
22 45 20
23 45 10
24 55 5
25 65 35
26 65 20
DEMAND_SECTION
1 0
2 10
3 7
4 13
5 19
6 26
7 3
8 5
9 9
10 16
11 16
12 12
13 19
14 23
15 20
16 8
17 19
18 2
19 12
20 17
21 9
22 11
23 18
24 29
25 3
26 6
TIME_WINDOW_SECTION
1 0 1000
2 0 974
3 0 972
4 0 967
5 620 860
6 0 969
7 0 978
8 0 968
9 323 563
10 329 569
11 0 964
12 146 386
13 0 975
14 639 879
15 0 957
16 118 358
17 0 960
18 0 959
19 0 974
20 0 957
21 0 958
22 0 971
23 0 963
24 146 386
25 0 960
26 716 956
DEPOT_SECTION
1 
-1
EOF
